NAME : cgl_37.4883.tour
COMMENT : Length = 4883
COMMENT : Found by LKH-3 [Keld Helsgaun] Thu Jun 26 21:26:48 2025
TYPE : TOUR
DIMENSION : 38
TOUR_SECTION
20
19
15
11
16
17
13
14
18
12
10
4
7
5
9
8
6
3
2
1
38
34
31
30
28
29
27
26
32
33
35
36
37
23
22
25
21
24
-1
EOF
